Welcome to the CBC MILP Solver 
Version: 2.10.12 
Build Date: Aug 20 2024 

command line - /opt/homebrew/bin/cbc computational_data/real_data/lp/wdbc_trial_002_margin.lp seconds 10.0 solve solu computational_data/real_data/solutions/wdbc_trial_002_margin.sol (default strategy 1)
 CoinLpIO::readLp(): Maximization problem reformulated as minimization
Coin0009I Switching back to maximization to get correct duals etc
seconds was changed from 1e+100 to 10
Continuous objective value is 112.008 - 0.00 seconds
Cgl0003I 0 fixed, 0 tightened bounds, 143 strengthened rows, 4 substitutions
Cgl0003I 0 fixed, 0 tightened bounds, 51 strengthened rows, 0 substitutions
Cgl0003I 0 fixed, 0 tightened bounds, 44 strengthened rows, 0 substitutions
Cgl0003I 0 fixed, 0 tightened bounds, 29 strengthened rows, 0 substitutions
Cgl0003I 0 fixed, 0 tightened bounds, 18 strengthened rows, 0 substitutions
Cgl0003I 0 fixed, 0 tightened bounds, 12 strengthened rows, 0 substitutions
Cgl0003I 0 fixed, 0 tightened bounds, 5 strengthened rows, 0 substitutions
Cgl0003I 0 fixed, 0 tightened bounds, 2 strengthened rows, 0 substitutions
Cgl0003I 0 fixed, 0 tightened bounds, 2 strengthened rows, 0 substitutions
Cgl0004I processed model has 76 rows, 43 columns (43 integer (43 of which binary)) and 777 elements
Cbc0038I Initial state - 2 integers unsatisfied sum - 0.222222
Cbc0038I Pass   1: suminf.    0.22222 (2) obj. 111.785 iterations 10
Cbc0038I Solution found of 110.008
Cbc0038I Before mini branch and bound, 41 integers at bound fixed and 0 continuous
Cbc0038I Full problem 76 rows 43 columns, reduced to 0 rows 0 columns
Cbc0038I Mini branch and bound did not improve solution (0.01 seconds)
Cbc0038I Round again with cutoff of 110.185
Cbc0038I Pass   2: suminf.    0.22222 (2) obj. 111.785 iterations 0
Cbc0038I Pass   3: suminf.    0.17779 (1) obj. 110.185 iterations 16
Cbc0038I Pass   4: suminf.    0.11111 (1) obj. 110.897 iterations 2
Cbc0038I Pass   5: suminf.    1.40003 (4) obj. 110.185 iterations 11
Cbc0038I Pass   6: suminf.    0.40003 (2) obj. 110.185 iterations 8
Cbc0038I Pass   7: suminf.    0.17780 (1) obj. 110.185 iterations 4
Cbc0038I Pass   8: suminf.    0.11111 (1) obj. 110.897 iterations 2
Cbc0038I Pass   9: suminf.    0.40004 (2) obj. 110.185 iterations 27
Cbc0038I Pass  10: suminf.    0.40004 (2) obj. 110.185 iterations 9
Cbc0038I Pass  11: suminf.    0.17782 (1) obj. 110.185 iterations 1
Cbc0038I Pass  12: suminf.    0.11111 (1) obj. 110.897 iterations 1
Cbc0038I Pass  13: suminf.    1.40005 (4) obj. 110.185 iterations 11
Cbc0038I Pass  14: suminf.    0.62228 (3) obj. 110.185 iterations 16
Cbc0038I Pass  15: suminf.    0.40005 (2) obj. 110.185 iterations 1
Cbc0038I Pass  16: suminf.    0.40005 (2) obj. 110.185 iterations 2
Cbc0038I Pass  17: suminf.    0.40005 (2) obj. 110.185 iterations 5
Cbc0038I Pass  18: suminf.    0.62226 (3) obj. 110.185 iterations 14
Cbc0038I Pass  19: suminf.    0.62226 (3) obj. 110.185 iterations 4
Cbc0038I Pass  20: suminf.    0.40004 (2) obj. 110.185 iterations 1
Cbc0038I Pass  21: suminf.    0.40004 (2) obj. 110.185 iterations 0
Cbc0038I Pass  22: suminf.    0.40004 (2) obj. 110.185 iterations 3
Cbc0038I Pass  23: suminf.    0.22222 (2) obj. 110.785 iterations 19
Cbc0038I Pass  24: suminf.    0.22222 (2) obj. 110.785 iterations 8
Cbc0038I Pass  25: suminf.    0.40003 (2) obj. 110.185 iterations 6
Cbc0038I Pass  26: suminf.    0.40003 (2) obj. 110.185 iterations 1
Cbc0038I Pass  27: suminf.    0.40003 (2) obj. 110.185 iterations 5
Cbc0038I Pass  28: suminf.    0.62226 (3) obj. 110.185 iterations 19
Cbc0038I Pass  29: suminf.    0.62226 (3) obj. 110.185 iterations 5
Cbc0038I Pass  30: suminf.    0.40004 (2) obj. 110.185 iterations 1
Cbc0038I Pass  31: suminf.    0.40004 (2) obj. 110.185 iterations 0
Cbc0038I No solution found this major pass
Cbc0038I Before mini branch and bound, 20 integers at bound fixed and 0 continuous
Cbc0038I Full problem 76 rows 43 columns, reduced to 41 rows 21 columns
Cbc0038I Mini branch and bound did not improve solution (0.01 seconds)
Cbc0038I After 0.01 seconds - Feasibility pump exiting with objective of 110.008 - took 0.00 seconds
Cbc0012I Integer solution of 110.00768 found by feasibility pump after 0 iterations and 0 nodes (0.01 seconds)
Cbc0031I 2 added rows had average density of 29
Cbc0013I At root node, 11 cuts changed objective from 111.78546 to 110.00768 in 1 passes
Cbc0014I Cut generator 0 (Probing) - 0 row cuts average 0.0 elements, 0 column cuts (0 active)  in 0.000 seconds - new frequency is -100
Cbc0014I Cut generator 1 (Gomory) - 2 row cuts average 29.0 elements, 0 column cuts (0 active)  in 0.000 seconds - new frequency is 1
Cbc0014I Cut generator 2 (Knapsack) - 4 row cuts average 19.0 elements, 0 column cuts (0 active)  in 0.000 seconds - new frequency is 1
Cbc0014I Cut generator 3 (Clique) - 0 row cuts average 0.0 elements, 0 column cuts (0 active)  in 0.000 seconds - new frequency is -100
Cbc0014I Cut generator 4 (MixedIntegerRounding2) - 0 row cuts average 0.0 elements, 0 column cuts (0 active)  in 0.000 seconds - new frequency is -100
Cbc0014I Cut generator 5 (FlowCover) - 0 row cuts average 0.0 elements, 0 column cuts (0 active)  in 0.000 seconds - new frequency is -100
Cbc0014I Cut generator 6 (TwoMirCuts) - 3 row cuts average 25.7 elements, 0 column cuts (0 active)  in 0.000 seconds - new frequency is -100
Cbc0014I Cut generator 7 (ZeroHalf) - 2 row cuts average 18.0 elements, 0 column cuts (0 active)  in 0.000 seconds - new frequency is 1
Cbc0001I Search completed - best objective 110.007682, took 0 iterations and 0 nodes (0.01 seconds)
Cbc0035I Maximum depth 0, 0 variables fixed on reduced cost
Cuts at root node changed objective from 111.785 to 110.008
Probing was tried 1 times and created 0 cuts of which 0 were active after adding rounds of cuts (0.000 seconds)
Gomory was tried 1 times and created 2 cuts of which 0 were active after adding rounds of cuts (0.000 seconds)
Knapsack was tried 1 times and created 4 cuts of which 0 were active after adding rounds of cuts (0.000 seconds)
Clique was tried 1 times and created 0 cuts of which 0 were active after adding rounds of cuts (0.000 seconds)
MixedIntegerRounding2 was tried 1 times and created 0 cuts of which 0 were active after adding rounds of cuts (0.000 seconds)
FlowCover was tried 1 times and created 0 cuts of which 0 were active after adding rounds of cuts (0.000 seconds)
TwoMirCuts was tried 1 times and created 3 cuts of which 0 were active after adding rounds of cuts (0.000 seconds)
ZeroHalf was tried 1 times and created 2 cuts of which 0 were active after adding rounds of cuts (0.000 seconds)

Result - Optimal solution found

Objective value:                110.00768200
Enumerated nodes:               0
Total iterations:               0
Time (CPU seconds):             0.01
Time (Wallclock seconds):       0.01

Total time (CPU seconds):       0.01   (Wallclock seconds):       0.01

